sat
(:max-memory         18.42
 :memory             18.32
 :nlsat-arith-var    3
 :nlsat-atoms        6
 :nlsat-bool-var     1
 :nlsat-clauses      6
 :nlsat-propagations 6
 :nlsat-stages       4
 :num-allocs         50551
 :rlimit-count       1078
 :time               0.00
 :total-time         0.02)
